* ENCODING=ISO-8859-1
NAME          CPLEX
ROWS
 N  obj1    
 G  c1      
 G  c2      
 G  c3      
 G  c4      
 G  c5      
 G  c6      
 G  c7      
 G  c8      
 G  c9      
 G  c10     
 G  c11     
 G  c12     
 G  c13     
 G  c14     
 G  c15     
 G  c16     
 G  c17     
 G  c18     
 G  c19     
 G  c20     
 G  c21     
 G  c22     
 G  c23     
 G  c24     
 G  c25     
 G  c26     
 G  c27     
 G  c28     
 G  c29     
 G  c30     
 G  c31     
 G  c32     
 G  c33     
 G  c34     
 G  c35     
 G  c36     
 G  c37     
 G  c38     
 G  c39     
 G  c40     
 G  c41     
 G  c42     
 G  c43     
 G  c44     
 G  c45     
 G  c46     
 G  c47     
 G  c48     
 G  c49     
 G  c50     
 G  c51     
 G  c52     
 G  c53     
 G  c54     
 G  c55     
 G  c56     
 G  c57     
 G  c58     
 G  c59     
 G  c60     
 G  c61     
 G  c62     
 G  c63     
 G  c64     
 G  c65     
 G  c66     
 G  c67     
 G  c68     
 G  c69     
 G  c70     
COLUMNS
    MARK0000  'MARKER'                 'INTORG'
    x1        obj1                            1
    x1        c11                           210
    x1        c30                           434
    x1        c49                           489
    x2        obj1                            1
    x2        c17                           686
    x2        c27                           388
    x2        c30                           183
    x2        c39                           789
    x2        c55                           684
    x2        c64                           798
    x2        c69                           932
    x3        obj1                            1
    x3        c16                           946
    x3        c21                           144
    x3        c25                           698
    x3        c34                           222
    x3        c37                           555
    x3        c41                           389
    x3        c42                           326
    x3        c43                           471
    x3        c48                           884
    x3        c49                           152
    x3        c58                           138
    x4        obj1                            1
    x4        c5                            731
    x4        c6                            897
    x4        c15                           318
    x4        c16                           606
    x4        c36                           357
    x4        c51                           371
    x4        c68                           406
    x5        obj1                            1
    x5        c6                            446
    x5        c21                           515
    x5        c27                           276
    x5        c46                           675
    x5        c52                           217
    x5        c54                           568
    x5        c59                           465
    x5        c60                           216
    x6        obj1                            1
    x6        c2                            520
    x6        c19                           314
    x6        c26                           435
    x7        obj1                            1
    x7        c47                           729
    x7        c65                           947
    x7        c66                           912
    x8        obj1                            1
    x8        c5                            851
    x8        c6                            739
    x8        c7                            467
    x8        c31                           266
    x8        c41                           853
    x8        c52                           356
    x8        c58                           140
    x8        c62                           846
    x8        c69                           723
    x9        obj1                            1
    x9        c5                            443
    x9        c7                            609
    x9        c50                           962
    x9        c62                           740
    x10       obj1                            1
    x10       c4                            319
    x10       c11                           880
    x10       c32                           156
    x10       c36                           525
    x10       c43                           190
    x10       c53                           147
    x10       c66                           595
    x10       c67                           316
    x11       obj1                            1
    x11       c12                           359
    x11       c40                           614
    x11       c49                           336
    x11       c60                           798
    x12       obj1                            1
    x12       c1                            599
    x12       c20                           238
    x12       c32                           934
    x12       c41                           697
    x12       c48                           543
    x12       c49                           420
    x12       c51                           133
    x12       c65                           587
    x12       c70                           149
    x13       obj1                            1
    x13       c2                            838
    x13       c14                           305
    x13       c46                           744
    x13       c53                           511
    x13       c54                           323
    x14       obj1                            1
    x14       c6                            126
    x14       c16                           455
    x14       c22                           197
    x14       c27                           187
    x14       c50                           785
    x14       c61                           394
    x15       obj1                            1
    x15       c31                           540
    x15       c60                           367
    x15       c69                           564
    x16       obj1                            1
    x16       c3                            623
    x16       c10                           916
    x16       c12                           758
    x16       c17                           510
    x16       c51                           202
    x17       obj1                            1
    x17       c11                           407
    x17       c20                           217
    x17       c35                           334
    x17       c43                           156
    x17       c45                           928
    x17       c50                           577
    x17       c68                           546
    x18       obj1                            1
    x18       c3                            950
    x18       c34                           224
    x18       c42                           485
    x18       c51                           932
    x18       c53                           263
    x18       c61                           389
    x18       c67                           264
    x19       obj1                            1
    x19       c9                            748
    x19       c11                           911
    x19       c30                           940
    x19       c33                           371
    x19       c38                           571
    x19       c52                           180
    x19       c60                           914
    x20       obj1                            1
    x20       c4                            906
    x20       c5                            863
    x20       c56                           390
    x21       obj1                            1
    x21       c16                           925
    x21       c39                           794
    x21       c41                           326
    x21       c44                           582
    x21       c53                           537
    x21       c61                           981
    x21       c70                           110
    x22       obj1                            1
    x22       c6                            673
    x22       c15                           811
    x22       c16                           895
    x22       c27                           456
    x22       c48                           937
    x22       c54                           393
    x22       c58                           976
    x22       c60                           861
    x22       c64                           589
    x22       c69                           513
    x23       obj1                            1
    x23       c4                            786
    x23       c17                           625
    x23       c31                           862
    x23       c42                           411
    x23       c53                           499
    x24       obj1                            1
    x24       c39                           611
    x24       c41                           865
    x24       c42                           113
    x24       c44                           818
    x24       c48                           868
    x24       c59                           417
    x25       obj1                            1
    x25       c16                           442
    x25       c18                           375
    x25       c28                           405
    x25       c30                           457
    x25       c46                           827
    x25       c61                           567
    x26       obj1                            1
    x26       c5                            127
    x26       c18                           933
    x26       c33                           439
    x26       c50                           815
    x26       c51                           445
    x26       c56                           164
    x26       c70                           557
    x27       obj1                            1
    x27       c1                            379
    x27       c4                            939
    x27       c8                            271
    x27       c15                           732
    x27       c22                           951
    x27       c28                           356
    x27       c34                           230
    x27       c37                           301
    x27       c39                           408
    x27       c47                           404
    x27       c63                           396
    x28       obj1                            1
    x28       c2                            669
    x28       c7                            615
    x28       c15                           473
    x28       c19                           375
    x28       c24                           227
    x28       c29                           944
    x28       c52                           113
    x28       c60                           574
    x29       obj1                            1
    x29       c19                           951
    x29       c32                           906
    x29       c39                           221
    x29       c40                           790
    x29       c56                           193
    x29       c65                           205
    x30       obj1                            1
    x30       c8                            254
    x30       c16                           426
    x30       c29                           355
    x30       c35                           170
    x31       obj1                            1
    x31       c3                            544
    x31       c5                            955
    x31       c11                           945
    x31       c20                           741
    x31       c21                           364
    x31       c29                           771
    x31       c48                           758
    x31       c49                           723
    x31       c50                           847
    x31       c52                           496
    x31       c62                           980
    x32       obj1                            1
    x32       c22                           530
    x32       c26                           677
    x32       c27                           704
    x32       c36                           191
    x32       c39                           891
    x32       c49                           621
    x32       c56                           172
    x32       c57                           883
    x32       c63                           925
    x32       c64                           612
    x32       c65                           931
    x32       c68                           486
    x33       obj1                            1
    x33       c12                           569
    x33       c24                           424
    x33       c38                           390
    x34       obj1                            1
    x34       c16                           808
    x34       c52                           216
    x34       c65                           697
    x35       obj1                            1
    x35       c4                            867
    x35       c6                            602
    x35       c10                           496
    x35       c47                           649
    x35       c64                           456
    x35       c66                           152
    x36       obj1                            1
    x36       c9                            633
    x36       c12                           874
    x36       c13                           949
    x36       c15                           186
    x36       c24                           665
    x36       c45                           743
    x36       c54                           916
    x36       c55                           840
    x36       c57                           441
    x36       c70                           149
    x37       obj1                            1
    x37       c3                            895
    x37       c13                           248
    x37       c39                           236
    x37       c56                           858
    x37       c62                           961
    x37       c68                           253
    x37       c69                           798
    x38       obj1                            1
    x38       c21                           882
    x38       c41                           613
    x38       c59                           926
    x38       c61                           938
    x38       c65                           363
    x39       obj1                            1
    x39       c8                            298
    x39       c10                           531
    x39       c13                           519
    x39       c14                           112
    x39       c21                           377
    x39       c29                           422
    x39       c46                           296
    x39       c65                           955
    x39       c69                           502
    x39       c70                           141
    x40       obj1                            1
    x40       c7                            856
    x40       c24                           621
    x40       c33                           879
    x40       c37                           221
    x40       c47                           495
    x41       obj1                            1
    x41       c29                           143
    x41       c32                           153
    x41       c35                           652
    x41       c36                           910
    x41       c39                           947
    x41       c44                           464
    x41       c56                           264
    x41       c60                           194
    x41       c61                           863
    x41       c67                           998
    x42       obj1                            1
    x42       c13                           103
    x42       c14                           262
    x42       c26                           145
    x42       c38                           159
    x42       c39                           263
    x42       c58                           466
    x43       obj1                            1
    x43       c3                            611
    x43       c56                           276
    x44       obj1                            1
    x44       c4                            885
    x44       c5                            652
    x44       c12                           783
    x44       c15                           850
    x44       c31                           665
    x44       c51                           738
    x44       c55                           949
    x44       c64                           525
    x45       obj1                            1
    x45       c10                           424
    x45       c17                           467
    x45       c24                           105
    x45       c27                           192
    x45       c33                           358
    x45       c34                           916
    x46       obj1                            1
    x46       c2                            136
    x46       c7                            624
    x46       c8                            968
    x46       c11                           300
    x46       c12                           853
    x46       c13                           905
    x46       c33                           619
    x46       c42                           983
    x46       c56                           224
    x46       c64                           508
    x46       c68                           794
    x47       obj1                            1
    x47       c15                           501
    x47       c18                           420
    x47       c23                           569
    x47       c37                           102
    x47       c44                           714
    x47       c46                           656
    x47       c53                           170
    x48       obj1                            1
    x48       c7                            550
    x48       c25                           614
    x48       c38                           152
    x48       c62                           554
    x49       obj1                            1
    x49       c22                           975
    x49       c33                           896
    x49       c37                           330
    x49       c52                           482
    x49       c64                           165
    x50       obj1                            1
    x50       c9                            132
    x50       c12                           889
    x50       c26                           338
    x50       c32                           245
    x50       c34                           344
    x50       c47                           194
    x50       c50                           367
    x50       c54                           801
    x50       c63                           520
    x50       c65                           994
    x51       obj1                            1
    x51       c4                            571
    x51       c9                            719
    x51       c10                           125
    x51       c47                           422
    x52       obj1                            1
    x52       c13                           202
    x52       c29                           838
    x52       c47                           645
    x52       c62                           308
    x53       obj1                            1
    x53       c5                            624
    x53       c6                            585
    x53       c11                           342
    x53       c12                           986
    x53       c22                           221
    x53       c33                           210
    x53       c39                           950
    x53       c43                           927
    x53       c47                           397
    x53       c61                           771
    x53       c67                           207
    x54       obj1                            1
    x54       c15                           601
    x54       c56                           409
    x54       c59                           285
    x55       obj1                            1
    x55       c9                            348
    x55       c17                           531
    x55       c28                           329
    x55       c31                           937
    x55       c32                           492
    x55       c45                           434
    x55       c50                           821
    x55       c52                           480
    x55       c53                           505
    x55       c57                           890
    x55       c58                           188
    x55       c62                           956
    x56       obj1                            1
    x56       c15                           828
    x56       c22                           512
    x56       c29                           410
    x56       c44                           382
    x56       c45                           996
    x56       c55                           100
    x57       obj1                            1
    x57       c5                            532
    x57       c19                           155
    x57       c22                           886
    x57       c25                           900
    x57       c51                           363
    x57       c54                           693
    x57       c70                           116
    x58       obj1                            1
    x58       c1                            813
    x58       c13                           934
    x58       c25                           563
    x58       c27                           414
    x58       c33                           908
    x58       c45                           807
    x58       c47                           269
    x58       c54                           718
    x58       c66                           170
    x59       obj1                            1
    x59       c8                            500
    x59       c13                           124
    x59       c33                           463
    x59       c38                           821
    x59       c48                           100
    x59       c56                           984
    x59       c57                           373
    x59       c61                           746
    x60       obj1                            1
    x60       c16                           421
    x60       c17                           454
    x60       c25                           136
    x60       c27                           770
    x60       c31                           879
    x60       c37                           208
    x60       c46                           619
    x61       obj1                            1
    x61       c6                            897
    x61       c17                           915
    x61       c23                           685
    x61       c48                           454
    x61       c54                           979
    x61       c65                           655
    x62       obj1                            1
    x62       c22                           583
    x62       c23                           511
    x62       c32                           566
    x62       c38                           744
    x62       c43                           267
    x62       c57                           321
    x62       c63                           680
    x63       obj1                            1
    x63       c5                            140
    x63       c7                            596
    x63       c28                           150
    x63       c57                           555
    x63       c68                           852
    x64       obj1                            1
    x64       c4                            491
    x64       c10                           597
    x64       c29                           516
    x64       c57                           922
    x64       c64                           519
    x64       c67                           614
    x64       c70                           257
    x65       obj1                            1
    x65       c6                            652
    x65       c25                           956
    x65       c32                           631
    x65       c40                           986
    x65       c45                           371
    x65       c60                           457
    x65       c68                           274
    x66       obj1                            1
    x66       c1                            506
    x66       c4                            413
    x66       c12                           938
    x66       c20                           543
    x66       c21                           893
    x66       c36                           546
    x66       c65                           334
    x67       obj1                            1
    x67       c18                           221
    x67       c35                           662
    x67       c38                           361
    x67       c51                           408
    x68       obj1                            1
    x68       c2                            957
    x68       c9                            407
    x68       c14                           189
    x68       c15                           554
    x68       c23                           470
    x68       c27                           421
    x68       c68                           272
    x69       obj1                            1
    x69       c13                           186
    x69       c16                           721
    x69       c23                           354
    x69       c24                           821
    x69       c27                           828
    x69       c29                           917
    x69       c32                           958
    x69       c40                           330
    x69       c44                           973
    x69       c62                           362
    x69       c66                           750
    x69       c70                           237
    x70       obj1                            1
    x70       c30                           354
    x70       c34                           215
    x70       c40                           797
    x70       c58                           920
    x70       c66                           345
    x70       c70                           782
    MARK0001  'MARKER'                 'INTEND'
RHS
    rhs       c1                           1149
    rhs       c2                           1560
    rhs       c3                           1812
    rhs       c4                           3089
    rhs       c5                           2959
    rhs       c6                           2809
    rhs       c7                           2159
    rhs       c8                           1146
    rhs       c9                           1494
    rhs       c10                          1545
    rhs       c11                          1998
    rhs       c12                          3505
    rhs       c13                          2085
    rhs       c14                           434
    rhs       c15                          2927
    rhs       c16                          3323
    rhs       c17                          2094
    rhs       c18                           975
    rhs       c19                           898
    rhs       c20                           870
    rhs       c21                          1588
    rhs       c22                          2428
    rhs       c23                          1295
    rhs       c24                          1432
    rhs       c25                          1934
    rhs       c26                           798
    rhs       c27                          2318
    rhs       c28                           620
    rhs       c29                          2658
    rhs       c30                          1184
    rhs       c31                          2075
    rhs       c32                          2521
    rhs       c33                          2572
    rhs       c34                          1076
    rhs       c35                           909
    rhs       c36                          1265
    rhs       c37                           859
    rhs       c38                          1599
    rhs       c39                          3055
    rhs       c40                          1759
    rhs       c41                          1872
    rhs       c42                          1159
    rhs       c43                          1006
    rhs       c44                          1967
    rhs       c45                          2140
    rhs       c46                          1909
    rhs       c47                          2102
    rhs       c48                          2272
    rhs       c49                          1371
    rhs       c50                          2587
    rhs       c51                          1796
    rhs       c52                          1270
    rhs       c53                          1316
    rhs       c54                          2696
    rhs       c55                          1287
    rhs       c56                          1967
    rhs       c57                          2193
    rhs       c58                          1414
    rhs       c59                          1047
    rhs       c60                          2191
    rhs       c61                          2825
    rhs       c62                          2854
    rhs       c63                          1261
    rhs       c64                          2086
    rhs       c65                          3334
    rhs       c66                          1462
    rhs       c67                          1200
    rhs       c68                          1942
    rhs       c69                          2016
    rhs       c70                          1249
BOUNDS
 LI bnd       x1        0
 LI bnd       x2        0
 LI bnd       x3        0
 LI bnd       x4        0
 LI bnd       x5        0
 LI bnd       x6        0
 LI bnd       x7        0
 LI bnd       x8        0
 LI bnd       x9        0
 LI bnd       x10       0
 LI bnd       x11       0
 LI bnd       x12       0
 LI bnd       x13       0
 LI bnd       x14       0
 LI bnd       x15       0
 LI bnd       x16       0
 LI bnd       x17       0
 LI bnd       x18       0
 LI bnd       x19       0
 LI bnd       x20       0
 LI bnd       x21       0
 LI bnd       x22       0
 LI bnd       x23       0
 LI bnd       x24       0
 LI bnd       x25       0
 LI bnd       x26       0
 LI bnd       x27       0
 LI bnd       x28       0
 LI bnd       x29       0
 LI bnd       x30       0
 LI bnd       x31       0
 LI bnd       x32       0
 LI bnd       x33       0
 LI bnd       x34       0
 LI bnd       x35       0
 LI bnd       x36       0
 LI bnd       x37       0
 LI bnd       x38       0
 LI bnd       x39       0
 LI bnd       x40       0
 LI bnd       x41       0
 LI bnd       x42       0
 LI bnd       x43       0
 LI bnd       x44       0
 LI bnd       x45       0
 LI bnd       x46       0
 LI bnd       x47       0
 LI bnd       x48       0
 LI bnd       x49       0
 LI bnd       x50       0
 LI bnd       x51       0
 LI bnd       x52       0
 LI bnd       x53       0
 LI bnd       x54       0
 LI bnd       x55       0
 LI bnd       x56       0
 LI bnd       x57       0
 LI bnd       x58       0
 LI bnd       x59       0
 LI bnd       x60       0
 LI bnd       x61       0
 LI bnd       x62       0
 LI bnd       x63       0
 LI bnd       x64       0
 LI bnd       x65       0
 LI bnd       x66       0
 LI bnd       x67       0
 LI bnd       x68       0
 LI bnd       x69       0
 LI bnd       x70       0
ENDATA
